Version identifier: 22.1.1.0 | 2022-11-28 | 9160aff4d
CPXPARAM_Threads                                 1
CPXPARAM_MIP_Strategy_VariableSelect             3
CPXPARAM_TimeLimit                               599.99998757699996
1 of 1 MIP starts provided solutions.
MIP start 'm1' defined initial solution with objective 118.0000.
Tried aggregator 1 time.
MIP Presolve eliminated 21 rows and 1545 columns.
MIP Presolve modified 3 coefficients.
Reduced MIP has 2153 rows, 2163 columns, and 21181 nonzeros.
Reduced MIP has 2163 binaries, 0 generals, 0 SOSs, and 0 indicators.
Presolve time = 0.01 sec. (14.11 ticks)
Probing time = 0.00 sec. (2.52 ticks)
Tried aggregator 1 time.
Detecting symmetries...
Reduced MIP has 2153 rows, 2163 columns, and 21181 nonzeros.
Reduced MIP has 2163 binaries, 0 generals, 0 SOSs, and 0 indicators.
Presolve time = 0.01 sec. (12.27 ticks)
Probing time = 0.00 sec. (2.52 ticks)
Clique table members: 1226.
MIP emphasis: balance optimality and feasibility.
MIP search method: dynamic search.
Parallel mode: none, using 1 thread.
Root relaxation solution time = 0.03 sec. (45.23 ticks)

        Nodes                                         Cuts/
   Node  Left     Objective  IInf  Best Integer    Best Bound    ItCnt     Gap

*     0+    0                          118.0000     2163.0000              --- 
      0     0      308.0000   390      118.0000      308.0000     1347  161.02%
*     0+    0                          308.0000      308.0000             0.00%
      0     0        cutoff            308.0000      308.0000     1347    0.00%
Elapsed time = 0.29 sec. (369.67 ticks, tree = 0.01 MB, solutions = 2)

Root node processing (before b&c):
  Real time             =    0.29 sec. (369.82 ticks)
Sequential b&c:
  Real time             =    0.00 sec. (0.00 ticks)
                          ------------
Total (root+branch&cut) =    0.29 sec. (369.82 ticks)
Primal:	308
Dual:	308
Status:	Optimal
Time:	0.31
Sequence:
	0
	4
	4
	0
	4
	6
	0
	4
	4
	0
	4
	4
	0
	6
	9
	0
	9
	9
	0
	9
	9
	0
	9
	9
	0
	9
	9
	0
	9
	9
	0
	9
	9
	0
	9
	9
	0
	9
	9
	0
	9
	9
	0
	4
	6
	0
	4
	9
	0
	4
	5
	0
	6
	9
	0
	9
	9
	0
	9
	9
	0
	9
	9
	0
	9
	9
	0
	9
	9
	0
	9
	9
	0
	9
	9
	0
	6
	4
	0
	9
	6
	0
	9
	9
	9
	0
	6
	9
	0
	4
	6
	0
	4
	4
	0
	4
	9
	0
	9
	9
	0
	6
	4
	0
	4
	9
	0
	4
	9
	0
	9
	4
	0
	4
	4
	0
	6
	4
	0
	1
	9
	0
	9
	1
	0
	5
	9
	0
	4
	6
	0
	9
	4
	0
	9
	9
	0
	4
	9
	0
	9
	9
	0
	9
	3
	0
	4
	9
	0
	4
	9
	0
	4
	4
	0
	9
	9
	0
	9
	6
	0
	9
	9
	0
	9
	1
	0
	4
	6
	0
	4
	4
	0
	4
	9
	0
	9
	1
	0
	4
	3
	0
	4
	4
	0
	4
	6
	0
	9
	4
	0
	4
	4
	0
	9
	4
	0
	4
	4
	0
	5
	4
	0
	4
	9
	0
	4
	4
	0
	9
	4
	0
	6
	4
	0
	9
	6
	0
	4
	4
	0
	9
	4
	0
	4
	4
	0
	4
	9
	0
	4
	4
	0
	4
	4
	0
	9
	4
	0
	9
	9
	0
	4
	9
	0
	9
	9
	0
	9
	6
	0
	9
	3
	0
	9
	1
	0
	5
	9
	0
	4
	9
	0
	4
	6
	0
	1
	9
	0
	3
	4
	0
	4
	9
	0
	9
	9
	0
	9
	9
	0
	6
	4
	0
	9
	6
	0
	1
	4
	0
	6
	9
	0
	9
	1
	0
	9
	9
	0
	4
	9
	0
	4
	1
	0
	9
	6
	0
